sat
( (t_init 5)
  (i_init 6)
  (j_init 7)
  (n_init (- 1))
  (c_0 (- 1))
  (c_1 5)
  (c_2 6)
  (c_3 7)
  (c_4 (- 1))
  (c_5 0)
  (c_6 (- 1))
  (c_7 2)
  (c_8 (- 1))
  (c_9 0)
  (c_10 1)
  (c_11 0)
  (c_12 0)
  (c_13 1)
  (c_14 0)
  (c_15 (- 1))
  (c_16 1)
  (c_17 0)
  (c_18 (- 1))
  (c_19 0) )
